Problem:    matrizCustosOrigDest
Rows:       7
Columns:    9 (9 integer, 9 binary)
Non-zeros:  27
Status:     INTEGER OPTIMAL
Objective:  cost = 23 (MINimum)

   No.   Row name        Activity     Lower bound   Upper bound
------ ------------    ------------- ------------- -------------
     1 cost                       23                             
     2 conser[2]                   0            -0             = 
     3 conser[3]                   0            -0             = 
     4 conser[4]                   0            -0             = 
     5 conser[5]                   0            -0             = 
     6 inicio                     -1            -1             = 
     7 fim                         1             1             = 

   No. Column name       Activity     Lower bound   Upper bound
------ ------------    ------------- ------------- -------------
     1 x[1,2]       *              1             0             1 
     2 x[1,3]       *              0             0             1 
     3 x[2,3]       *              0             0             1 
     4 x[2,4]       *              0             0             1 
     5 x[2,5]       *              1             0             1 
     6 x[3,5]       *              0             0             1 
     7 x[4,5]       *              0             0             1 
     8 x[4,6]       *              0             0             1 
     9 x[5,6]       *              1             0             1 

Integer feasibility conditions:

KKT.PE: max.abs.err = 0.00e+00 on row 0
        max.rel.err = 0.00e+00 on row 0
        High quality

KKT.PB: max.abs.err = 0.00e+00 on row 0
        max.rel.err = 0.00e+00 on row 0
        High quality

End of output
